1 1 -2 0
1 1 -3 0
1 -1 4 0
1 2 3 0
1 -2 -5 0
1 -2 -1 0
1 -6 -7 0
1 -6 -8 0
1 -6 9 0
1 -6 10 0
1 6 11 0
1 12 -3 0
1 12 -9 0
1 -12 6 0
1 12 -11 0
1 5 -13 0
1 -5 -14 0
1 -5 -12 0
1 -5 -2 0
1 -5 -15 0
1 -5 -16 0
1 5 -17 0
1 -5 11 0
1 -11 18 0
1 -11 -13 0
1 -11 14 0
1 -11 12 0
1 11 -2 0
1 -11 -5 0
1 11 -17 0
1 -11 1 0
1 3 19 0
1 3 -12 0
1 -3 2 0
1 3 20 0
1 -3 4 0
1 -4 -19 0
1 -4 21 0
1 4 -6 0
1 -4 22 0
1 17 -5 0
1 17 -9 0
1 17 20 0
1 17 11 0
1 14 -8 0
1 14 17 0
1 16 23 0
1 -16 -9 0
1 16 24 0
1 -16 25 0
1 16 -26 0
1 13 -8 0
1 -13 27 0
1 13 -26 0
1 -9 28 0
1 9 29 0
1 9 6 0
1 8 -28 0
1 -8 13 0
1 -8 12 0
1 8 29 0
1 -8 -6 0
1 -8 30 0
1 23 -31 0
1 -23 -14 0
1 -23 29 0
1 -23 -32 0
1 23 16 0
1 23 -30 0
1 -7 -33 0
1 7 31 0
1 7 -29 0
1 -7 -23 0
1 -7 -15 0
1 -7 17 0
1 -34 -27 0
1 -34 9 0
1 -34 15 0
1 28 -8 0
1 28 -31 0
1 28 35 0
1 -28 24 0
1 -28 -26 0
1 -36 35 0
1 -36 24 0
1 -36 -26 0
1 37 9 0
1 26 37 0
1 26 13 0
1 -26 -27 0
1 26 -36 0
1 26 34 0
1 -26 -16 0
1 26 38 0
1 27 -13 0
1 -27 -39 0
1 27 16 0
1 -27 26 0
1 -24 -39 0
1 -24 36 0
1 24 40 0
1 24 -41 0
1 -24 -30 0
1 -35 -28 0
1 35 13 0
1 -35 -42 0
1 35 29 0
1 -35 -36 0
1 35 -16 0
1 35 -40 0
1 -35 30 0
1 -43 44 0
1 43 45 0
1 -43 1 0
1 44 46 0
1 44 -45 0
1 -44 47 0
1 -10 -46 0
1 -10 -48 0
1 -10 49 0
1 -10 -45 0
1 10 50 0
1 10 6 0
1 -51 47 0
1 51 50 0
1 -51 52 0
1 -48 53 0
1 -48 21 0
1 48 20 0
1 -47 21 0
1 -46 -54 0
1 46 51 0
1 -46 44 0
1 -46 -43 0
1 45 55 0
1 -20 -21 0
1 -20 -56 0
1 20 47 0
1 -21 -48 0
1 21 20 0
1 -21 -4 0
1 25 49 0
1 25 -3 0
1 -25 50 0
1 -25 -16 0
1 25 57 0
1 19 -49 0
1 -19 -3 0
1 19 25 0
1 19 -58 0
1 -56 33 0
1 56 -31 0
1 56 -51 0
1 56 -15 0
1 -56 20 0
1 -52 56 0
1 52 51 0
1 52 59 0
1 -52 -15 0
1 -52 25 0
1 52 60 0
1 52 -20 0
1 49 61 0
1 -49 19 0
1 -49 62 0
1 -49 -50 0
1 -49 20 0
1 -50 -19 0
1 50 21 0
1 50 51 0
1 -50 -59 0
1 -50 25 0
1 15 -56 0
1 -15 -3 0
1 15 34 0
1 15 -4 0
1 -31 56 0
1 -31 -63 0
1 31 -3 0
1 31 23 0
1 31 15 0
1 -32 -7 0
1 32 56 0
1 -32 -64 0
1 32 65 0
1 -32 58 0
1 32 -57 0
1 32 22 0
1 33 18 0
1 33 7 0
1 -33 56 0
1 33 -65 0
1 33 58 0
1 64 -33 0
1 -64 -31 0
1 -64 -19 0
1 64 66 0
1 64 29 0
1 -64 15 0
1 -57 -19 0
1 57 -67 0
1 57 68 0
1 -57 41 0
1 -57 -30 0
1 63 69 0
1 -63 -59 0
1 63 -25 0
1 -63 -58 0
1 -63 -70 0
1 58 31 0
1 -58 -15 0
1 58 -70 0
1 -29 -18 0
1 -29 -7 0
1 -29 -8 0
1 -29 57 0
1 29 22 0
1 30 -65 0
1 -30 29 0
1 -30 -71 0
1 -72 18 0
1 -72 -73 0
1 -72 35 0
1 -72 74 0
1 -72 -57 0
1 -72 -22 0
1 -41 -73 0
1 -41 -75 0
1 41 -65 0
1 41 76 0
1 41 74 0
1 41 -22 0
1 -71 -18 0
1 71 -33 0
1 -71 -77 0
1 -71 -72 0
1 71 29 0
1 71 -32 0
1 -71 78 0
1 -71 -41 0
1 -18 -33 0
1 -18 79 0
1 -18 72 0
1 -18 -29 0
1 -18 -11 0
1 -18 78 0
1 -18 40 0
1 -18 41 0
1 65 -33 0
1 65 -77 0
1 65 -29 0
1 -65 32 0
1 65 78 0
1 -65 -80 0
1 -65 81 0
1 -65 22 0
1 65 30 0
1 -22 33 0
1 -22 67 0
1 -22 78 0
1 -22 81 0
1 22 -41 0
1 39 18 0
1 -39 67 0
1 -39 71 0
1 -39 -40 0
1 40 18 0
1 -40 75 0
1 -40 -27 0
1 -40 -39 0
1 40 76 0
1 -79 -18 0
1 79 -73 0
1 -79 75 0
1 -79 -42 0
1 79 -82 0
1 79 -83 0
1 79 76 0
1 79 -38 0
1 84 -73 0
1 -84 -79 0
1 84 -76 0
1 -84 -38 0
1 74 85 0
1 74 -79 0
1 -74 -39 0
1 74 -72 0
1 -74 9 0
1 74 84 0
1 74 41 0
1 -75 -86 0
1 75 -85 0
1 75 -79 0
1 75 39 0
1 -75 -87 0
1 75 -88 0
1 76 77 0
1 -76 -78 0
1 -73 -89 0
1 -73 39 0
1 -73 76 0
1 73 78 0
1 -73 -84 0
1 -85 -75 0
1 -85 42 0
1 -85 90 0
1 -85 -88 0
1 -85 -38 0
1 -86 -42 0
1 -86 89 0
1 -86 -87 0
1 -87 75 0
1 87 86 0
1 -87 -91 0
1 87 -38 0
1 38 86 0
1 38 85 0
1 -38 84 0
1 82 86 0
1 -82 85 0
1 -82 79 0
1 82 -38 0
1 -90 42 0
1 90 -79 0
1 -90 -84 0
1 42 -90 0
1 42 -88 0
1 -42 -84 0
1 59 -61 0
1 59 63 0
1 -59 29 0
1 -59 -55 0
1 59 -50 0
1 -61 54 0
1 -61 53 0
1 61 -55 0
1 61 -52 0
1 -69 -62 0
1 -69 72 0
1 -69 -60 0
1 69 -58 0
1 -70 -62 0
1 70 -55 0
1 70 60 0
1 70 -58 0
1 53 61 0
1 -53 83 0
1 -53 69 0
1 -53 92 0
1 -53 -80 0
1 53 -81 0
1 -92 53 0
1 92 67 0
1 -92 -69 0
1 -92 -47 0
1 -92 -80 0
1 54 61 0
1 54 55 0
1 55 -61 0
1 -55 -54 0
1 -55 59 0
1 67 -93 0
1 -67 -39 0
1 -67 -64 0
1 -67 94 0
1 67 -60 0
1 -67 -57 0
1 -67 81 0
1 -81 -62 0
1 -81 67 0
1 -81 92 0
1 -81 94 0
1 -81 60 0
1 -81 40 0
1 81 -22 0
1 -83 95 0
1 83 -79 0
1 -83 -96 0
1 -83 65 0
1 83 92 0
1 83 80 0
1 83 -68 0
1 83 22 0
1 80 -53 0
1 80 -83 0
1 -80 -96 0
1 80 -65 0
1 80 92 0
1 93 60 0
1 -93 89 0
1 93 56 0
1 -93 77 0
1 -93 -67 0
1 -93 -69 0
1 -60 89 0
1 60 83 0
1 -60 78 0
1 62 49 0
1 -62 83 0
1 62 -80 0
1 -62 81 0
1 -62 70 0
1 94 83 0
1 94 -67 0
1 94 -80 0
1 94 81 0
1 -77 93 0
1 77 -65 0
1 77 -71 0
1 77 -76 0
1 -77 95 0
1 77 -68 0
1 -77 22 0
1 78 18 0
1 -78 -96 0
1 -78 66 0
1 78 65 0
1 -78 -71 0
1 78 76 0
1 -78 -95 0
1 -89 91 0
1 -89 -95 0
1 91 73 0
1 91 89 0
1 91 -76 0
1 -91 87 0
1 -66 -83 0
1 -66 -91 0
1 66 -78 0
1 -66 -80 0
1 66 -68 0
1 -68 77 0
1 -68 -66 0
1 -68 -80 0
1 -96 -89 0
1 -96 -95 0
1 96 -80 0
1 -95 89 0
1 95 77 0
1 95 96 0
1 -95 -91 0
